ls-10: Cost: 525 [1, 1, 1, 0, 0, 0, 1, 1, 1, 0]
(optimal)

ls-20: Cost: 1566 [1, 1, 3, 2, 2, 2, 0, 0, 0, 0, 3, 3, 3, 3, 1, 0, 0, 2, 0, 2]
(optimal)

ls-30: Cost: 2983 [3, 1, 0, 0, 4, 4, 5, 5, 2, 1, 1, 0, 0, 0, 0, 0, 3, 1, 4, 4, 5, 0, 0, 1, 1, 4, 4, 2, 1, 3]
(optimal)

ls-40: Cost: 4077 [2, 2, 7, 4, 6, 6, 5, 5, 5, 0, 2, 1, 1, 7, 7, 3, 2, 2, 2, 0, 0, 0, 5, 5, 5, 5, 5, 6, 6, 6, 6, 6, 2, 2, 3, 0, 0, 4, 3, 3]
(optimal)

ls-50: Cost: 5836 [9, 9, 8, 4, 4, 4, 4, 1, 1, 3, 3, 3, 5, 0, 0, 0, 7, 6, 6, 2, 2, 8, 8, 8, 1, 1, 4, 5, 9, 9, 2, 7, 3, 9, 6, 0, 4, 5, 7, 9, 8, 8, 0, 0, 3, 1, 1, 1, 5, 8]
(optimal)

ls-70: Cost: 8557 [5, 0, 9, 7, 11, 3, 5, 1, 12, 6, 3, 2, 2, 11, 3, 7, 0, 0, 0, 8, 10, 6, 13, 12, 9, 2, 2, 4, 5, 5, 5, 9, 9, 9, 9, 7, 0, 13, 10, 10, 10, 6, 2, 4, 11, 7, 0, 9, 7, 11, 2, 2, 4, 3, 5, 5, 11, 11, 13, 1, 1, 9, 7, 6, 4, 0, 12, 5, 1, 0]
(optimal)

ls-100: Cost: 12798 [4, 10, 7, 0, 6, 6, 12, 9, 9, 19, 15, 16, 10, 10, 17, 0, 0, 16, 16, 16, 2, 2, 14, 14, 15, 13, 13, 5, 7, 19, 19, 19, 15, 4, 4, 4, 8, 6, 2, 2, 10, 13, 13, 19, 12, 15, 15, 11, 17, 17, 3, 5, 5, 13, 13, 19, 19, 8, 7, 9, 3, 6, 6, 6, 16, 19, 19, 14, 4, 11, 7, 9, 9, 9, 0, 0, 8, 10, 10, 13, 8, 2, 17, 11, 12, 12, 1, 19, 15, 16, 16, 3, 15, 5, 17, 3, 3, 15, 15, 3]

ls-200: Cost: 28695 [8, 8, 8, 10, 14, 11, 16, 15, 17, 11, 11, 16, 7, 5, 9, 9, 13, 13, 12, 12, 12, 10, 10, 17, 18, 0, 0, 13, 13, 13, 4, 4, 4, 12, 19, 7, 8, 8, 8, 11, 15, 15, 15, 12, 12, 16, 5, 10, 10, 17, 17, 17, 14, 12, 3, 3, 3, 17, 19, 1, 1, 7, 7, 5, 5, 10, 11, 11, 11, 11, 12, 2, 0, 0, 0, 0, 0, 7, 3, 3, 13, 13, 10, 1, 1, 6, 6, 4, 4, 12, 5, 16, 7, 7, 19, 6, 6, 9, 9, 5, 5, 5, 10, 1, 1, 1, 2, 17, 17, 17, 6, 6, 14, 14, 7, 18, 13, 11, 11, 11, 6, 15, 19, 1, 8, 16, 2, 17, 4, 4, 13, 13, 13, 2, 0, 0, 5, 9, 9, 12, 12, 14, 1, 1, 6, 6, 18, 18, 18, 10, 3, 3, 0, 0, 12, 12, 7, 17, 17, 10, 10, 9, 19, 1, 5, 0, 0, 17, 17, 17, 7, 14, 3, 3, 2, 11, 18, 18, 7, 15, 3, 16, 3, 4, 14, 9, 4, 0, 0, 8, 7, 13, 5, 3, 12, 1, 5, 11, 19, 19]

ls-300: Cost: 47250 [0, 9, 16, 1, 11, 5, 15, 2, 3, 13, 9, 9, 19, 5, 7, 14, 14, 9, 9, 6, 11, 15, 3, 0, 18, 10, 1, 1, 6, 11, 2, 0, 0, 5, 5, 3, 3, 3, 11, 6, 6, 14, 13, 10, 11, 18, 18, 2, 1, 14, 14, 0, 0, 0, 19, 19, 9, 5, 1, 1, 1, 11, 18, 3, 16, 16, 16, 13, 13, 4, 8, 19, 12, 12, 6, 6, 6, 15, 3, 11, 8, 13, 17, 15, 4, 15, 3, 6, 5, 5, 5, 16, 13, 0, 18, 6, 6, 6, 9, 7, 7, 18, 10, 10, 10, 10, 12, 12, 9, 19, 9, 9, 13, 13, 13, 5, 15, 4, 1, 1, 6, 6, 6, 6, 6, 6, 6, 11, 16, 16, 16, 3, 0, 0, 17, 7, 8, 19, 3, 3, 18, 5, 5, 5, 5, 16, 1, 14, 13, 18, 11, 11, 11, 4, 4, 12, 12, 0, 0, 0, 0, 6, 16, 16, 14, 14, 13, 7, 7, 10, 10, 10, 19, 15, 15, 9, 9, 2, 2, 17, 17, 19, 19, 18, 5, 5, 16, 16, 7, 7, 7, 3, 3, 17, 10, 10, 18, 11, 16, 16, 2, 4, 7, 8, 14, 14, 6, 6, 6, 6, 13, 9, 17, 15, 12, 12, 3, 11, 19, 5, 5, 12, 16, 13, 13, 13, 10, 10, 4, 15, 15, 7, 7, 7, 1, 14, 0, 16, 14, 14, 4, 15, 11, 9, 0, 17, 14, 7, 9, 11, 11, 18, 16, 13, 15, 10, 10, 10, 19, 5, 5, 5, 12, 1, 4, 15, 11, 9, 7, 18, 8, 19, 3, 12, 12, 13, 2, 6, 14, 15, 15, 12, 12, 16, 3, 3, 9, 15, 18, 8, 19, 5, 5, 13, 1, 4, 12, 9, 11, 15]

ls-400: Cost: 69077 [9, 3, 19, 1, 5, 7, 8, 14, 14, 11, 11, 16, 16, 16, 0, 19, 8, 14, 14, 9, 11, 15, 15, 6, 17, 8, 12, 11, 10, 13, 18, 18, 3, 3, 6, 0, 2, 2, 11, 11, 16, 16, 7, 4, 4, 1, 7, 12, 12, 8, 8, 10, 17, 17, 13, 15, 12, 11, 5, 3, 3, 9, 9, 13, 13, 13, 8, 3, 14, 12, 7, 18, 2, 3, 13, 4, 4, 11, 12, 16, 16, 7, 1, 15, 15, 14, 10, 13, 13, 18, 18, 6, 6, 8, 8, 8, 11, 11, 14, 0, 0, 6, 6, 6, 17, 17, 19, 1, 16, 16, 16, 16, 12, 0, 0, 0, 7, 7, 17, 17, 3, 3, 3, 19, 19, 19, 1, 1, 9, 9, 10, 7, 4, 4, 5, 18, 2, 2, 2, 2, 12, 12, 0, 0, 15, 15, 4, 4, 4, 4, 10, 18, 19, 19, 19, 1, 1, 1, 7, 7, 17, 13, 11, 15, 15, 15, 14, 10, 10, 9, 9, 3, 3, 13, 13, 19, 14, 8, 8, 12, 17, 17, 17, 6, 4, 4, 9, 9, 9, 9, 5, 5, 18, 10, 9, 9, 9, 12, 15, 15, 19, 19, 3, 3, 11, 13, 4, 4, 8, 0, 0, 0, 14, 9, 11, 16, 16, 19, 5, 18, 8, 8, 8, 8, 14, 9, 9, 11, 14, 17, 10, 7, 1, 1, 1, 16, 16, 3, 4, 11, 0, 0, 9, 12, 19, 18, 6, 6, 6, 5, 5, 10, 11, 2, 19, 19, 17, 13, 15, 15, 15, 15, 14, 8, 8, 8, 7, 5, 10, 10, 10, 9, 2, 2, 17, 17, 17, 11, 11, 0, 3, 3, 9, 4, 8, 18, 10, 5, 5, 3, 3, 9, 9, 9, 17, 1, 13, 18, 18, 10, 7, 5, 6, 6, 0, 11, 11, 17, 19, 7, 7, 11, 11, 2, 3, 14, 18, 6, 6, 6, 4, 1, 15, 13, 18, 11, 11, 11, 12, 14, 5, 13, 4, 4, 19, 1, 16, 3, 6, 18, 16, 19, 14, 9, 15, 15, 0, 13, 17, 8, 9, 10, 13, 13, 1, 2, 15, 14, 9, 4, 8, 11, 5, 5, 7, 15, 0, 18, 17, 17, 13, 6, 9, 19, 1, 8, 8, 18, 2, 19, 4, 4, 8, 12, 9, 9, 16, 17, 10, 13, 5, 9, 12, 19, 15, 4, 4, 12, 19, 1]

ls-500: Cost: 85028 [10, 9, 4, 4, 10, 3, 3, 1, 7, 5, 12, 19, 13, 13, 8, 8, 8, 16, 17, 6, 19, 10, 10, 13, 13, 13, 6, 16, 10, 10, 11, 18, 13, 13, 8, 15, 5, 6, 6, 9, 17, 3, 3, 19, 10, 0, 0, 2, 2, 13, 7, 1, 1, 8, 15, 5, 5, 12, 8, 8, 17, 19, 9, 6, 18, 5, 5, 16, 0, 0, 1, 14, 15, 7, 7, 1, 1, 5, 2, 16, 19, 0, 0, 0, 18, 17, 17, 1, 19, 10, 4, 15, 11, 11, 8, 14, 18, 13, 13, 13, 14, 0, 1, 12, 12, 8, 15, 15, 5, 6, 6, 10, 10, 19, 16, 19, 19, 18, 18, 18, 2, 2, 3, 3, 11, 11, 15, 15, 18, 1, 17, 3, 3, 3, 9, 15, 15, 15, 5, 7, 9, 9, 19, 19, 0, 8, 6, 6, 12, 12, 8, 15, 19, 7, 7, 1, 16, 16, 4, 5, 5, 5, 15, 14, 2, 2, 0, 17, 17, 6, 1, 1, 1, 12, 12, 10, 13, 9, 14, 15, 2, 2, 14, 6, 13, 19, 18, 5, 5, 15, 17, 11, 10, 0, 2, 13, 1, 7, 11, 11, 3, 13, 13, 13, 13, 13, 9, 9, 6, 16, 18, 17, 7, 7, 1, 1, 1, 4, 4, 4, 9, 2, 2, 2, 2, 16, 11, 1, 1, 12, 12, 8, 14, 6, 3, 3, 4, 4, 11, 11, 11, 11, 4, 4, 15, 18, 18, 8, 8, 17, 6, 7, 7, 12, 19, 19, 15, 15, 11, 11, 9, 9, 4, 6, 0, 12, 5, 10, 11, 11, 4, 14, 0, 7, 1, 1, 6, 9, 9, 2, 2, 2, 10, 10, 18, 18, 5, 5, 7, 7, 19, 19, 19, 11, 4, 13, 9, 9, 2, 8, 17, 17, 1, 19, 0, 4, 4, 4, 10, 11, 18, 6, 3, 3, 13, 13, 13, 12, 16, 16, 14, 14, 8, 8, 8, 18, 0, 0, 11, 15, 18, 5, 5, 2, 2, 2, 2, 2, 6, 6, 1, 1, 1, 1, 10, 9, 9, 9, 9, 11, 15, 15, 15, 15, 18, 18, 17, 12, 3, 3, 14, 19, 0, 0, 4, 4, 8, 15, 7, 7, 1, 1, 12, 8, 8, 15, 2, 19, 19, 18, 5, 16, 16, 10, 3, 3, 3, 3, 11, 11, 12, 1, 5, 2, 7, 13, 13, 12, 12, 15, 15, 14, 18, 17, 17, 19, 19, 9, 9, 9, 4, 16, 16, 10, 10, 10, 10, 3, 3, 3, 13, 13, 13, 0, 0, 18, 18, 18, 14, 14, 14, 19, 0, 1, 1, 1, 1, 6, 6, 9, 15, 15, 10, 10, 19, 15, 18, 18, 2, 2, 0, 7, 7, 17, 11, 10, 10, 13, 13, 1, 6, 9, 5, 12, 13, 1, 17, 11, 6, 16, 16, 19, 18, 18, 5, 10, 10, 6, 0, 19, 19, 7, 8, 8, 8, 19, 11, 1, 1, 4, 6, 9, 14, 2, 7, 11, 15, 13, 4, 17]
